UBC_100_6.txt

VEHICLE     CAPACITY  LOCATIONS  CUSTOMER  OPTIONS  PRIORITIES  NUMTYPS
10		400		105		100		200		3		4

CUSTOMER  DEMAND
0	 16
1	 13
2	 13
3	 19
4	 13
5	 11
6	 19
7	 19
8	 16
9	 18
10	 18
11	 19
12	 10
13	 17
14	 16
15	 12
16	 13
17	 19
18	 12
19	 20
20	 17
21	 12
22	 15
23	 19
24	 13
25	 15
26	 20
27	 12
28	 14
29	 10
30	 11
31	 20
32	 10
33	 20
34	 12
35	 11
36	 14
37	 17
38	 11
39	 15
40	 15
41	 20
42	 16
43	 10
44	 19
45	 11
46	 12
47	 11
48	 20
49	 10
50	 12
51	 11
52	 10
53	 11
54	 13
55	 16
56	 13
57	 14
58	 17
59	 11
60	 18
61	 11
62	 17
63	 11
64	 13
65	 18
66	 13
67	 10
68	 19
69	 15
70	 10
71	 12
72	 19
73	 11
74	 18
75	 15
76	 12
77	 13
78	 16
79	 18
80	 11
81	 16
82	 15
83	 12
84	 13
85	 20
86	 12
87	 19
88	 17
89	 14
90	 19
91	 14
92	 19
93	 17
94	 14
95	 12
96	 11
97	 14
98	 13
99	 13

LOCATION  XCOORD  YCOORD  CAP  READY  DUE  TYP  SERVICETIME
0		44		46		-1		0		720	 0		0
1		28		12		-1		329		569		 2		6
2		33		40		-1		166		406		 2		6
3		18		23		-1		427		547		 2		6
4		15		20		-1		0		360		 2		6
5		5		39		-1		158		278		 2		6
6		44		35		-1		360		720		 2		6
7		28		10		-1		513		633		 2		6
8		15		4		-1		186		426		 2		6
9		26		12		-1		360		720		 2		6
10		36		44		-1		0		360		 2		6
11		47		46		-1		400		520		 2		6
12		4		33		-1		360		480		 2		6
13		34		16		-1		50		170		 2		6
14		30		24		-1		61		181		 2		6
15		21		27		-1		0		360		 2		6
16		17		41		-1		196		316		 2		6
17		21		43		-1		340		580		 2		6
18		9		19		-1		127		247		 2		6
19		15		36		-1		0		120		 2		6
20		28		23		-1		178		298		 2		6
21		22		6		-1		199		319		 2		6
22		18		42		-1		59		179		 2		6
23		24		27		-1		360		720		 2		6
24		26		13		-1		0		360		 2		6
25		41		35		-1		405		525		 2		6
26		32		9		-1		360		720		 2		6
27		11		29		-1		0		360		 2		6
28		12		10		-1		91		211		 2		6
29		13		33		-1		2		122		 2		6
30		47		50		-1		554		674		 2		6
31		29		42		-1		343		583		 2		6
32		11		38		-1		2		122		 2		6
33		43		43		-1		13		253		 2		6
34		25		41		-1		84		324		 2		6
35		10		27		-1		463		583		 2		6
36		10		3		-1		129		249		 2		6
37		13		15		-1		0		360		 2		6
38		39		17		-1		211		451		 2		6
39		12		24		-1		353		593		 2		6
40		32		36		-1		105		345		 2		6
41		18		1		-1		127		247		 2		6
42		41		1		-1		83		203		 2		6
43		36		21		-1		542		662		 2		6
44		9		34		-1		175		415		 2		6
45		17		18		-1		235		355		 2		6
46		30		3		-1		0		360		 2		6
47		40		26		-1		443		683		 2		6
48		26		34		-1		450		690		 2		6
49		42		25		-1		5		125		 2		6
50		34		1		-1		0		360		 2		6
51		4		9		-1		452		692		 2		6
52		12		40		-1		548		668		 2		6
53		9		23		-1		58		298		 2		6
54		41		7		-1		2		122		 2		6
55		15		26		-1		360		720		 2		6
56		47		26		-1		238		358		 2		6
57		32		15		-1		360		720		 2		6
58		25		39		-1		360		720		 2		6
59		20		46		-1		44		164		 2		6
60		45		20		-1		79		319		 2		6
61		24		1		-1		0		360		 2		6
62		26		50		-1		0		360		 2		6
63		50		50		-1		360		720		 2		6
64		41		16		-1		360		720		 2		6
65		48		32		-1		0		360		 2		6
66		8		32		-1		360		720		 2		6
67		44		50		-1		130		250		 2		6
68		16		31		-1		0		360		 2		6
69		39		47		-1		460		700		 2		6
70		40		41		-1		115		235		 2		6
71		10		49		-1		275		515		 2		6
72		15		13		-1		177		417		 2		6
73		9		21		-1		360		720		 2		6
74		25		12		-1		0		360		 2		6
75		39		32		-1		360		720		 2		6
76		13		48		-1		360		720		 2		6
77		6		18		-1		0		360		 2		6
78		27		3		-1		360		720		 2		6
79		2		38		-1		540		660		 2		6
80		29		23		-1		31		151		 2		6
81		20		8		-1		224		344		 2		6
82		43		42		-1		360		720		 2		6
83		37		3		-1		50		170		 2		6
84		14		48		-1		0		360		 2		6
85		44		21		-1		20		260		 2		6
86		6		19		-1		358		598		 2		6
87		43		42		-1		37		157		 2		6
88		12		3		-1		360		720		 2		6
89		17		49		-1		204		444		 2		6
90		7		1		-1		360		720		 2		6
91		35		10		-1		0		360		 2		6
92		28		26		-1		56		176		 2		6
93		49		31		-1		0		360		 2		6
94		35		10		-1		360		720		 2		6
95		28		27		-1		360		720		 2		6
96		47		40		-1		137		257		 2		6
97		36		46		-1		164		404		 2		6
98		8		14		-1		0		360		 2		6
99		26		30		-1		8		128		 2		6
100		50		31		-1		360		720		 2		6
101		34		35		27		0		720		 1		4
102		21		38		22		0		720		 1		4
103		22		18		30		45		525		 1		4
104		33		24		28		0		720		 1		4
OPTION  LOCATION  CUSTOMER  PRIO  SERVICETIME   COST
0		102		0		0		2		0
1		103		1		0		2		0
2		103		2		0		2		0
3		104		3		0		2		0
4		104		4		0		2		0
5		104		5		0		2		0
6		103		6		0		2		0
7		103		7		0		2		0
8		101		8		0		2		0
9		101		9		0		2		0
10		102		10		0		2		0
11		103		11		0		2		0
12		103		12		0		2		0
13		104		13		0		2		0
14		101		14		0		2		0
15		101		15		0		2		0
16		102		16		0		2		0
17		104		17		0		2		0
18		103		18		0		2		0
19		102		19		0		2		0
20		1		20		0		5		0
21		2		21		0		5		0
22		3		22		0		5		0
23		4		23		0		5		0
24		5		24		0		5		0
25		6		25		0		5		0
26		7		26		0		5		0
27		8		27		0		5		0
28		9		28		0		5		0
29		10		29		0		5		0
30		11		30		0		5		0
31		12		31		0		5		0
32		13		32		0		5		0
33		14		33		0		5		0
34		15		34		0		5		0
35		16		35		0		5		0
36		17		36		0		5		0
37		18		37		0		5		0
38		19		38		0		5		0
39		20		39		0		5		0
40		21		40		0		5		0
41		104		40		1		2		0
42		22		41		1		5		0
43		101		41		0		2		0
44		23		42		1		5		0
45		101		42		0		2		0
46		24		43		0		5		0
47		104		43		1		2		0
48		25		44		0		5		0
49		103		44		1		2		0
50		26		45		0		5		0
51		101		45		1		2		0
52		27		46		1		5		0
53		104		46		0		2		0
54		28		47		0		5		0
55		103		47		1		2		0
56		29		48		0		5		0
57		103		48		1		2		0
58		30		49		1		5		0
59		101		49		0		2		0
60		31		50		0		5		0
61		101		50		1		2		0
62		32		51		0		5		0
63		102		51		1		2		0
64		33		52		0		5		0
65		102		52		1		2		0
66		34		53		0		5		0
67		104		53		1		2		0
68		35		54		1		5		0
69		104		54		0		2		0
70		36		55		1		5		0
71		102		55		0		2		0
72		37		56		0		5		0
73		102		56		1		2		0
74		38		57		1		5		0
75		103		57		0		2		0
76		39		58		0		5		0
77		101		58		1		2		0
78		40		59		1		5		0
79		104		59		0		2		0
80		41		60		0		5		0
81		102		60		1		2		0
82		103		60		2		2		0
83		42		61		1		5		0
84		103		61		2		2		0
85		104		61		0		2		0
86		43		62		0		5		0
87		104		62		1		2		0
88		103		62		2		2		0
89		44		63		2		5		0
90		104		63		0		2		0
91		103		63		1		2		0
92		45		64		0		5		0
93		101		64		2		2		0
94		103		64		1		2		0
95		46		65		2		5		0
96		103		65		0		2		0
97		104		65		1		2		0
98		47		66		2		5		0
99		104		66		0		2		0
100		101		66		1		2		0
101		48		67		2		5		0
102		104		67		1		2		0
103		103		67		0		2		0
104		49		68		2		5		0
105		104		68		1		2		0
106		101		68		0		2		0
107		50		69		1		5		0
108		104		69		2		2		0
109		102		69		0		2		0
110		51		70		0		5		0
111		103		70		1		2		0
112		102		70		2		2		0
113		52		71		1		5		0
114		102		71		2		2		0
115		104		71		0		2		0
116		53		72		1		5		0
117		104		72		2		2		0
118		103		72		0		2		0
119		54		73		0		5		0
120		103		73		1		2		0
121		102		73		2		2		0
122		55		74		0		5		0
123		102		74		2		2		0
124		103		74		1		2		0
125		56		75		0		5		0
126		101		75		1		2		0
127		103		75		2		2		0
128		57		76		1		5		0
129		104		76		2		2		0
130		101		76		0		2		0
131		58		77		0		5		0
132		101		77		1		2		0
133		102		77		2		2		0
134		59		78		1		5		0
135		101		78		0		2		0
136		103		78		2		2		0
137		60		79		2		5		0
138		104		79		0		2		0
139		103		79		1		2		0
140		61		80		0		5		0
141		62		80		1		5		0
142		102		80		2		2		0
143		63		81		0		5		0
144		64		81		1		5		0
145		104		81		2		2		0
146		65		82		2		5		0
147		66		82		0		5		0
148		102		82		1		2		0
149		67		83		1		5		0
150		68		83		2		5		0
151		101		83		0		2		0
152		69		84		0		5		0
153		70		84		1		5		0
154		101		84		2		2		0
155		71		85		1		5		0
156		72		85		2		5		0
157		102		85		0		2		0
158		73		86		1		5		0
159		74		86		0		5		0
160		101		86		2		2		0
161		75		87		1		5		0
162		76		87		2		5		0
163		101		87		0		2		0
164		77		88		1		5		0
165		78		88		0		5		0
166		104		88		2		2		0
167		79		89		2		5		0
168		80		89		0		5		0
169		102		89		1		2		0
170		81		90		2		5		0
171		82		90		0		5		0
172		104		90		1		2		0
173		83		91		2		5		0
174		84		91		0		5		0
175		103		91		1		2		0
176		85		92		1		5		0
177		86		92		2		5		0
178		104		92		0		2		0
179		87		93		2		5		0
180		88		93		1		5		0
181		102		93		0		2		0
182		89		94		0		5		0
183		90		94		2		5		0
184		101		94		1		2		0
185		91		95		2		5		0
186		92		95		0		5		0
187		102		95		1		2		0
188		93		96		0		5		0
189		94		96		1		5		0
190		101		96		2		2		0
191		95		97		1		5		0
192		96		97		0		5		0
193		101		97		2		2		0
194		97		98		0		5		0
195		98		98		2		5		0
196		102		98		1		2		0
197		99		99		2		5		0
198		100		99		1		5		0
199		104		99		0		2		0
